70
    1    31    25
    2    36    33
    3    63    57
    4    47    50
    5    66    61
    6    15    11
    7    26    20
    8    49    51
    9    49    46
   10    45    39
   11    13     7
   12    32    30
   13     1     3
   14    20    21
   15    21    26
   16    23    24
   17    73    70
   18    47    45
   19    65    68
   20    53    47
   21    27    24
   22     1     3
   23     4     1
   24    51    46
   25    63    60
   26    27    31
   27     1     5
   28    25    27
   29     4     9
   30     1     4
   31     3     5
   32    38    41
   33    62    65
   34    38    34
   35    33    35
   36    19    22
   37    31    29
   38    65    58
   39    13    17
   40    10    16
   41    41    46
   42    15    13
   43    33    27
   44    39    39
   45    52    46
   46    44    44
   47    45    45
   48    20    19
   49    16    16
   50    41    47
   51    29    22
   52    34    37
   53    30    34
   54    33    35
   55    75    70
   56    73    67
   57    20    24
   58    49    48
   59    45    49
   60    67    69
   61    30    28
   62    59    62
   63     3     5
   64    14     8
   65    13     9
   66    55    49
   67    25    32
   68    56    58
   69    39    37
   70    18    21
71
